Distance,Routes3528.73,47
3382.9,42
3243.59,40
3090.76,39
3053.8,36
2989.62,34
2861.73,33
2764.85,31
2653.57,29
2598.16,27
2434.24,26
2279.52,25
2181.62,24
2054.94,23
1939.73,21
1835.12,20
1733.16,19
1640.23,17
1558.98,16
1481.52,15
1415.72,14
1392.28,13
1288.7,13
1260.46,12
1251.26,11
1243.49,11
1243.49,11
1243.49,11
1243.49,11
1243.49,11
1243.49,11
1243.49,11
1236.63,11
1236.63,11
1236.63,11
1236.63,11
1236.63,11
1236.63,11
1236.63,11
1236.63,11
1236.63,11
1236.63,11
1236.63,11
1236.63,11
1236.63,11
1236.63,11
1236.57,11
1236.63,11
1236.63,11
1236.63,11
1236.63,11
1236.63,11
1236.63,11
1236.63,11
1236.63,11
1236.63,11
1236.63,11
1236.63,11
1236.63,11
1236.63,11
1236.63,11
1235.99,11
1235.99,11
1235.99,11
1235.99,11
1235.99,11
1235.99,11
1235.99,11
1235.99,11
1235.99,11
1230.94,11
1230.94,11
1230.94,11
1230.94,11
1230.94,11
1200.67,11
1200.67,11
1200.67,11
1200.67,11
1200.67,11
1200.67,11
1197.56,11
1197.56,11
1196.83,11
1187.33,11
1168.81,11
1165.97,11
1161.71,11
1161.71,11
1155.16,11
1155.16,11
1155.16,11
1155.16,11
1124.11,11
1124.11,11
1124.11,11
1124.11,11
1124.11,11
1124.11,11
1124.11,11
1124.11,11
1124.11,11
1124.11,11
1124.11,11
1124.11,11
1124.11,11
1124.11,11
1124.11,11
1124.11,11
1124.11,11
1124.11,11
1124.11,11
1124.11,11
1124.11,11
1124.11,11
1124.11,11
1124.11,11
1124.11,11
1124.11,11
1124.11,11
1124.11,11
1124.11,11
1124.11,11
1124.11,11
1124.11,11
1124.11,11
1124.11,11
1124.11,11
1124.11,11
1124.11,11
1124.11,11
1124.11,11
1124.11,11
1124.11,11
1124.11,11
1124.11,11
1124.11,11
1124.11,11
1124.11,11
1124.11,11
1124.11,11
1124.11,11
1124.11,11
1124.11,11
1124.11,11
1124.11,11
1124.11,11
1124.11,11
1124.11,11
1124.11,11
1124.11,11
1124.11,11
1124.11,11
1124.11,11
1124.11,11
1124.11,11
1124.11,11
1124.11,11
1124.11,11
1124.11,11
1124.11,11
1124.11,11
1124.11,11
1124.11,11
1115.28,11
1115.28,11
1115.28,11
1115.28,11
1115.28,11
1115.28,11
1115.28,11
1115.28,11
1115.28,11
1115.28,11
1115.28,11
1115.28,11
1115.28,11
1115.28,11
1115.28,11
1115.28,11
1115.28,11
1115.28,11
1115.28,11
1115.28,11
1115.28,11
1115.28,11
1115.28,11
1115.28,11
1115.28,11
1115.28,11
1115.28,11
1115.28,11
1115.28,11
1115.28,11
1115.28,11
1115.28,11
1115.28,11
1115.28,11
1115.28,11
1115.28,11
1115.28,11
1115.28,11
1115.28,11
1115.28,11
1115.28,11
1115.28,11
1115.28,11
1115.28,11
1115.28,11
1115.28,11
1115.28,11
1115.28,11
1115.28,11
1115.28,11
1115.28,11
1115.28,11
1115.28,11
1115.28,11
1115.28,11
1115.28,11
1115.28,11
1115.28,11
1099.28,11
1099.28,11
1099.28,11
1099.28,11
1099.28,11
1099.28,11
1099.28,11
1099.28,11
1099.28,11
1099.28,11
1099.28,11
1099.28,11
1099.28,11
1099.28,11
1099.28,11
1099.28,11
1099.28,11
1099.28,11
1099.28,11
1099.28,11
1099.28,11
1099.28,11
1099.28,11
1099.28,11
1099.28,11
1099.28,11
1099.28,11
1099.28,11
1099.28,11
1099.28,11
1099.28,11
1099.28,11
1099.28,11
1099.28,11
1099.28,11
1099.28,11
1099.28,11
1099.28,11
1099.28,11
1099.28,11
1099.28,11
1099.28,11
1099.28,11
1099.28,11
1099.28,11
1099.28,11
1099.28,11
1099.28,11
1099.28,11
1099.28,11
1099.28,11
1099.28,11
1099.28,11
1099.28,11
1099.28,11
1099.28,11
1099.28,11
1099.28,11
1099.28,11
1099.28,11
1099.28,11
1099.28,11
1099.28,11
1099.28,11
1099.28,11
1099.28,11
1099.28,11
1099.28,11
1099.28,11
1099.28,11
1099.28,11
1099.28,11
1099.28,11
1099.28,11
1099.28,11
1099.28,11
1099.28,11
1099.28,11
1099.28,11
1099.28,11
1099.28,11
1099.28,11
1099.28,11
1099.28,11
1099.28,11
1099.28,11
1099.28,11
1099.28,11
1099.28,11
1099.28,11
1099.28,11
1099.28,11
1099.28,11
1099.28,11
1099.28,11
1098.6,11
1098.6,11
1098.6,11
1098.6,11
1098.6,11
1098.6,11
1096.6,11
1096.6,11
1096.6,11
1096.6,11
1096.6,11
1100.96,10
1096.6,11
1096.6,11
1096.6,11
1096.6,11
1096.6,11
1096.6,11
1096.6,11
1096.6,11
1096.6,11
1096.6,11
1096.6,11
1096.6,11
1096.6,11
1096.6,11
1096.6,11
1096.6,11
1096.6,11
1096.6,11
1096.6,11
1096.6,11
1096.6,11
1096.6,11
1096.6,11
1096.6,11
1096.6,11
1096.6,11
1096.6,11
1096.6,11
1096.6,11
1096.6,11
1096.6,11
1096.6,11
1096.6,11
1096.6,11
1096.6,11
1096.6,11
1096.6,11
1096.6,11
1096.6,11
1096.6,11
1096.6,11
1096.6,11
1096.6,11
1096.6,11
1096.6,11
1096.6,11
1096.6,11
1096.6,11
1096.6,11
1096.6,11
1096.6,11
1096.6,11
1096.6,11
1096.6,11
1096.6,11
1096.6,11
1096.6,11
1096.6,11
1096.6,11
1096.6,11
1096.6,11
1096.6,11
1096.6,11
1096.6,11
1096.6,11
1096.6,11
1096.6,11
1096.6,11
1096.6,11
1096.6,11
1096.6,11
1096.6,11
1096.6,11
1096.6,11
1096.6,11
1096.6,11
1096.6,11
1096.6,11
1096.6,11
1096.6,11
1096.6,11
1096.6,11
1096.6,11
1096.6,11
1096.6,11
1096.6,11
1096.6,11
1096.6,11
1096.6,11
1096.6,11
1096.6,11
1096.6,11
1096.6,11
1096.6,11
1096.6,11
1096.6,11
1096.6,11
1096.6,11
1096.6,11
1096.6,11
1096.6,11
1096.6,11
1096.6,11
1096.6,11
1096.6,11
1096.6,11
1096.6,11
1096.6,11
1096.6,11
1096.6,11
1096.6,11
1096.6,11
1096.6,11
1096.6,11
1096.6,11
1096.6,11
1096.6,11
1096.6,11
1096.6,11
1096.6,11
1096.6,11
1096.6,11
1096.6,11
1096.6,11
1096.6,11
1096.6,11
1096.6,11
1096.6,11
1096.6,11
1094.48,11
1094.48,11
1094.48,11
1094.48,11
1094.48,11
1094.48,11
1094.48,11
1094.48,11
1094.48,11
1094.48,11
1094.48,11
1094.48,11
1094.48,11
1094.48,11
1094.48,11
1094.48,11
1094.48,11
1094.48,11
1094.48,11
1094.48,11
1094.48,11
1094.48,11
1094.48,11
1094.48,11
1094.48,11
1094.48,11
1094.48,11
1094.48,11
1094.48,11
1094.48,11
1094.48,11
1094.48,11
1094.48,11
1094.48,11
1094.48,11
1094.48,11
1094.48,11
1094.48,11
1094.48,11
1094.48,11
1094.48,11
1094.48,11
1094.48,11
1094.48,11
1094.48,11
1094.48,11
1094.48,11
1094.48,11
1094.48,11
1094.48,11
1094.48,11
1094.48,11
1094.48,11
1094.48,11
1094.48,11
1094.48,11
1094.48,11
1094.48,11
1094.48,11
1094.48,11
1094.48,11
1094.48,11
1094.48,11
1094.48,11
1094.48,11
1094.48,11
1094.48,11
1094.48,11
1094.48,11
1094.48,11
1094.48,11
1094.48,11
1094.48,11
1094.48,11
1094.48,11
1094.48,11
1094.48,11
1094.48,11
1094.48,11
1094.48,11
1094.48,11
1094.48,11
1094.48,11
1094.48,11
1094.48,11
1094.48,11
1094.48,11
1094.48,11
1094.48,11
1094.48,11
1094.48,11
1094.48,11
1094.48,11
1094.48,11
1094.48,11
1094.48,11
1094.48,11
1094.48,11
1094.48,11
1094.48,11
1094.48,11
1094.48,11
1094.48,11
1094.48,11
1094.48,11
1094.48,11
1094.48,11
1094.48,11
1094.48,11
1094.48,11
1094.48,11
1094.48,11
1094.48,11
1094.48,11
1094.48,11
1094.48,11
1094.48,11
1094.48,11
1094.48,11
1094.48,11
1094.48,11
1094.48,11
1094.48,11
1094.48,11
1094.48,11
1094.48,11
1094.48,11
1094.48,11
1094.48,11
1094.48,11
1094.48,11
1094.48,11
1094.48,11
1094.48,11
1094.48,11
1094.48,11
1094.48,11
1094.48,11
1094.48,11
1094.48,11
1094.48,11
1094.48,11
1094.48,11
1094.48,11
1094.48,11
1094.48,11
1094.48,11
1094.48,11
1094.48,11
1094.48,11
1071.96,11
1071.96,11
1071.96,11
1065.37,11
1065.37,11
1064.87,11
1064.87,11
1064.87,11
1064.87,11
1064.87,11
1064.87,11
1064.87,11
1064.87,11
1064.87,11
1064.87,11
1064.87,11
1064.87,11
1064.87,11
1064.87,11
1064.87,11
1064.87,11
1064.87,11
1064.87,11
1064.87,11
1064.87,11
1064.87,11
1064.87,11
1064.87,11
1064.87,11
1064.87,11
1064.87,11
1064.87,11
1064.87,11
1064.87,11
1064.87,11
1064.87,11
1064.87,11
1064.87,11
1064.87,11
1064.87,11
1064.87,11
1064.87,11
1064.87,11
1064.87,11
1064.87,11
1064.87,11
1064.87,11
1064.87,11
1064.87,11
1064.87,11
1064.87,11
1064.87,11
1064.87,11
1064.87,11
1064.87,11
1064.87,11
1064.87,11
1064.87,11
1064.87,11
1064.87,11
1064.87,11
1064.87,11
1064.87,11
1064.87,11
1064.87,11
1064.87,11
1064.87,11
1064.87,11
1064.87,11
1064.87,11
1064.87,11
1064.87,11
1064.87,11
1064.87,11
1064.87,11
1064.87,11
1064.87,11
1064.87,11
1064.87,11
1064.87,11
1064.87,11
1064.87,11
1064.87,11
1064.87,11
1064.87,11
1064.87,11
1064.87,11
1064.87,11
1064.87,11
1064.87,11
1064.87,11
1064.87,11
1064.87,11
1064.87,11
1064.87,11
1064.87,11
1064.87,11
1064.87,11
1064.87,11
1064.87,11
1064.87,11
1064.87,11
1064.87,11
1064.87,11
1064.87,11
1064.87,11
1064.87,11
1064.87,11
1064.87,11
1064.87,11
1064.87,11
1064.87,11
1064.87,11
1064.87,11
1064.87,11
1064.87,11
1064.87,11
1064.87,11
1064.87,11
1064.87,11
1064.87,11
1064.87,11
1064.87,11
1064.87,11
1064.87,11
1064.87,11
1064.87,11
1064.87,11
1064.87,11
1064.87,11
1064.87,11
1064.87,11
1064.87,11
1064.87,11
1064.87,11
1064.87,11
1064.87,11
1064.87,11
1064.87,11
1064.87,11
1064.87,11
1064.87,11
1064.87,11
1064.87,11
1064.87,11
1064.87,11
1064.87,11
1064.87,11
1064.87,11
1064.87,11
1064.87,11
1064.87,11
1064.87,11
1064.87,11
1064.87,11
1064.87,11
1064.87,11
1064.87,11
1064.87,11
1064.87,11
1064.87,11
1064.87,11
1064.87,11
1064.87,11
1064.87,11
1064.87,11
1064.87,11
1064.87,11
1064.87,11
1064.87,11
1064.87,11
1064.87,11
1064.87,11
1064.87,11
1064.87,11
1064.87,11
1064.87,11
1064.87,11
1064.87,11
1064.87,11
1064.87,11
1064.87,11
1064.87,11
1064.87,11
1064.87,11
1064.87,11
1064.87,11
1064.87,11
1064.87,11
1064.87,11
1064.87,11
1064.87,11
1064.87,11
1064.87,11
1064.87,11
1064.87,11
1064.87,11
1064.87,11
1064.87,11
1064.87,11
1064.87,11
1064.87,11
1064.87,11
1064.87,11
1064.87,11
1064.87,11
1064.87,11
1064.87,11
1064.87,11
1064.87,11
1064.87,11
1064.87,11
1064.87,11
1064.87,11
1064.87,11
1064.87,11
1064.87,11
1064.87,11
1064.87,11
1064.87,11
1064.87,11
1064.87,11
1064.87,11
1064.87,11
1064.87,11
1064.87,11
1064.87,11
1064.87,11
1064.87,11
1064.87,11
1064.87,11
1064.87,11
1064.87,11
1064.87,11
1064.87,11
1064.87,11
1064.87,11
1064.87,11
1064.87,11
1064.87,11
1064.87,11
1064.87,11
1064.87,11
1064.87,11
1064.87,11
1064.87,11
1064.87,11
1064.87,11
1064.87,11
1064.87,11
1064.87,11
1064.87,11
1064.87,11
1064.87,11
1064.87,11
1064.87,11
1064.87,11
1064.87,11
1064.87,11
1064.87,11
1064.87,11
1064.87,11
1064.87,11
1064.87,11
1064.87,11
1064.87,11
1064.87,11
1064.87,11
1064.87,11
1064.87,11
1064.87,11
1064.87,11
1064.87,11
1064.87,11
1064.87,11
1064.87,11
1064.87,11
1064.87,11
1064.87,11
1064.87,11
1064.87,11
1064.87,11
1064.87,11
1064.87,11
1064.87,11
1064.87,11
1064.87,11
1064.87,11
1064.87,11
1064.87,11
1064.87,11
1064.87,11
1064.87,11
1064.87,11
1064.87,11
1064.87,11
1064.87,11
1064.87,11
1064.87,11
1064.87,11
1064.87,11
1064.87,11
1064.87,11
1064.87,11
1064.87,11
1064.87,11
1064.87,11
1064.87,11
1064.87,11
1064.87,11
1064.87,11
1064.87,11
1064.87,11
1064.87,11
1064.87,11
1064.87,11
1064.87,11
1064.87,11
1064.87,11
1064.87,11
1064.87,11
1064.87,11
1064.87,11
1064.87,11
1064.87,11
1064.87,11
1064.87,11
1064.87,11
1064.87,11
1064.87,11
1064.87,11
1064.87,11
1064.87,11
1064.87,11
1064.87,11
1064.87,11
1064.87,11
1064.87,11
1064.87,11
1064.87,11
1064.87,11
1064.87,11
1064.87,11
1064.87,11
1064.87,11
1064.87,11
1064.87,11
1064.87,11
1064.87,11
1064.87,11
1064.87,11
1064.87,11
1064.87,11
1064.87,11
1064.87,11
1064.87,11
1064.87,11
1064.87,11
1064.87,11
1064.87,11
1064.87,11
1064.87,11
1064.87,11
1064.87,11
1064.87,11
1064.87,11
1064.87,11
1064.87,11
1064.87,11
1064.87,11
1064.87,11
1064.87,11
1064.87,11
1064.87,11
1064.87,11
1064.87,11
1064.87,11
1064.87,11
1064.87,11
1064.87,11
1064.87,11
1064.87,11
1064.87,11
1064.87,11
1064.87,11
1064.87,11
1064.87,11
1064.87,11
1064.87,11
1064.87,11
1064.87,11
1064.87,11
1064.87,11
1064.87,11
1064.87,11
1064.87,11
1064.87,11
1064.87,11
1064.87,11
1064.87,11
1064.87,11
1064.87,11
1064.87,11
1064.87,11
1064.87,11
1064.87,11
1064.87,11
1064.87,11
1064.87,11
1064.87,11
1064.87,11
1064.87,11
1064.87,11
1064.87,11
1064.87,11
1064.87,11
1064.87,11
1064.87,11
1064.87,11
1064.87,11
1064.87,11
1064.87,11
1064.87,11
1064.87,11
1064.87,11
1064.87,11
1064.87,11
1064.87,11
1064.87,11
1064.87,11
1064.87,11
1064.87,11
1064.87,11
1064.87,11
1064.87,11
1064.87,11
1064.87,11
1064.87,11
1064.87,11
1064.87,11
1064.87,11
1064.87,11
1064.87,11
1064.87,11
1064.87,11
1064.87,11
1064.87,11
1064.87,11
1064.87,11
1064.87,11
1064.87,11
1064.87,11
1064.87,11
1064.87,11
1064.87,11
1064.87,11
1064.87,11
1064.87,11
1064.87,11
1064.87,11
1064.87,11
1064.87,11
1064.87,11
1064.87,11
1064.87,11
1064.87,11
1064.87,11
1064.87,11
1064.87,11
1064.87,11
1064.87,11
1064.87,11
1064.87,11
1064.87,11
1064.87,11
1064.87,11
1064.87,11
1064.87,11
1064.87,11
1064.87,11
1064.87,11
1064.87,11
1064.87,11
1064.87,11
1064.87,11
1064.87,11
1064.87,11
1064.87,11
1064.87,11
1064.87,11
1064.87,11
1064.87,11
1064.87,11
1064.87,11
1064.87,11
1064.87,11
1064.87,11
1064.87,11
1064.87,11
1064.87,11
1064.87,11
1064.87,11
1064.87,11
1064.87,11
1064.87,11
1064.87,11
1064.87,11
1064.87,11
1064.87,11
1064.87,11
1064.87,11
1064.87,11
1064.87,11
1064.87,11
1064.87,11
1064.87,11
1064.87,11
1064.87,11
1064.87,11
1064.87,11
1064.87,11
1064.87,11
1064.87,11
1064.87,11
1064.87,11
1064.87,11
1064.87,11
1064.87,11
1064.87,11
1064.87,11
1064.87,11
1064.87,11
1064.87,11
1064.87,11
1064.87,11
1064.87,11
1064.87,11
1064.87,11
1064.87,11
1064.87,11
1064.87,11
1064.87,11
1064.87,11
1064.87,11
1064.87,11
1064.87,11
1064.87,11
1064.87,11
1064.87,11
1064.87,11
1064.87,11
1064.87,11
1064.87,11
1064.87,11
1064.87,11
1064.87,11
1064.87,11
1064.87,11
1064.87,11
1064.87,11
1064.87,11
1064.87,11
1064.87,11
1064.87,11
1064.87,11
1064.87,11
1064.87,11
1064.87,11
1064.87,11
1064.87,11
1064.87,11
1064.87,11
1064.87,11
1064.87,11
1064.87,11
1064.87,11
1064.87,11
1064.87,11
1064.87,11
1064.87,11
1064.87,11
1064.87,11
1064.87,11
1064.87,11
1064.87,11
1064.87,11
1064.87,11
1064.87,11
1064.87,11
1064.87,11
1064.87,11
1064.87,11
1064.87,11
1064.87,11
1064.87,11
1064.87,11
1064.87,11
1064.87,11
1064.87,11
1064.87,11
1064.87,11
1064.87,11
1064.87,11
1064.87,11
1064.87,11
1064.87,11
1064.87,11
1064.87,11
1064.87,11
1064.87,11
1064.87,11
1064.87,11
1064.87,11
1064.87,11
1064.87,11
1064.87,11
1064.87,11
1064.87,11
1064.87,11
1064.87,11
1064.87,11
1064.87,11
1064.87,11
1064.87,11
1064.87,11
1064.87,11
1064.87,11
1064.87,11
1064.87,11
1064.87,11
1064.87,11
1064.87,11
1064.87,11
1064.87,11
1064.87,11
1064.87,11
1064.87,11
1064.87,11
1064.87,11
1064.87,11
1064.87,11
1064.87,11
1064.87,11
1064.87,11
1064.87,11
1064.87,11
1064.87,11
1064.87,11
1064.87,11
1064.87,11
1064.87,11
1064.87,11
1064.87,11
1064.87,11
1064.87,11
1064.87,11
1064.87,11
1064.87,11
1064.87,11
1064.87,11
1064.87,11
1064.87,11
1064.87,11
1064.87,11
1064.87,11
1064.87,11
1064.87,11
1064.87,11
1064.87,11
1064.87,11
1064.87,11
1064.87,11
1064.87,11
1064.87,11
1064.87,11
1064.87,11
1064.87,11
1064.87,11
1064.87,11
1064.87,11
1064.87,11
1064.87,11
1064.87,11
1064.87,11
1064.87,11
1064.87,11
1064.87,11
1064.87,11
1064.87,11
1064.87,11
1064.87,11
1064.87,11
1064.87,11
1064.87,11
1064.87,11
1064.87,11
1064.87,11
1064.87,11
1064.87,11
1064.87,11
1064.87,11
1064.87,11
1064.87,11
1064.87,11
1064.87,11
1064.87,11
1064.87,11
1064.87,11
1064.87,11
1064.87,11
1064.87,11
1064.87,11
1064.87,11
1064.87,11
1064.87,11
1064.87,11
1064.87,11
1064.87,11
1064.87,11
1064.87,11
1064.87,11
1064.87,11
1064.87,11
1064.87,11
1064.87,11
1064.87,11
1064.87,11
1064.87,11
1064.87,11
1064.87,11
1064.87,11
1064.87,11
1064.87,11
1064.87,11
1064.87,11
1064.87,11
1064.87,11
1064.87,11
1064.87,11
1064.87,11
1064.87,11
1064.87,11
1064.87,11
1064.87,11
1064.87,11
1064.87,11
1064.87,11
1064.87,11
1064.87,11
1064.87,11
1064.87,11
1064.87,11
1064.87,11
1064.87,11
1064.87,11
1064.87,11
1064.87,11
1064.87,11
1064.87,11
1064.87,11
1064.87,11
1064.87,11
1064.87,11
1064.87,11
1064.87,11
1064.87,11
1064.87,11
1064.87,11
1064.87,11
1064.87,11
1064.87,11
1064.87,11
1064.87,11
1064.87,11
1064.87,11
1064.87,11
1064.87,11
1064.87,11
1064.87,11
1064.87,11
1064.87,11
1064.87,11
1064.87,11
1064.87,11
1064.87,11
1064.87,11
1064.87,11
1064.87,11
1064.87,11
1064.87,11
1064.87,11
1064.87,11
1064.87,11
1064.87,11
1064.87,11
1064.87,11
1064.87,11
1064.87,11
1064.87,11
1064.87,11
1064.87,11
1064.87,11
1064.87,11
1064.87,11
1064.87,11
1064.87,11
1064.87,11
1064.87,11
1064.87,11
1064.87,11
1064.87,11
1064.87,11
1064.87,11
1064.87,11
1064.87,11
1064.87,11
1064.87,11
1064.87,11
1064.87,11
1064.87,11
1064.87,11
1064.87,11
1064.87,11
1064.87,11
1064.87,11
1064.87,11
1064.87,11
1064.87,11
1064.87,11
1064.87,11
1064.87,11
1064.87,11
1064.87,11
1064.87,11
1064.87,11
1064.87,11
1064.87,11
1064.87,11
1064.87,11
1064.87,11
1064.87,11
1064.87,11
1064.87,11
1064.87,11
1064.87,11
1064.87,11
1064.87,11
1064.87,11
1064.87,11
1064.87,11
1064.87,11
1064.87,11
1064.87,11
1064.87,11
1064.87,11
1064.87,11
1064.87,11
1064.87,11
1064.87,11
1064.87,11
1064.87,11
1064.87,11
1064.87,11
1064.87,11
1064.87,11
1064.87,11
1064.87,11
1064.87,11
1064.87,11
1064.87,11
1064.87,11
1064.87,11
1064.87,11
1064.87,11
1064.87,11
1064.87,11
1064.87,11
1064.87,11
1064.87,11
1064.87,11
1064.87,11
1064.87,11
1064.87,11
1064.87,11
1064.87,11
1064.87,11
1064.87,11
1064.87,11
1064.87,11
1064.87,11
1064.87,11
1064.87,11
1064.87,11
1064.87,11
1064.87,11
1064.87,11
1064.87,11
1064.87,11
1064.87,11
1064.87,11
1064.87,11
1064.87,11
1064.87,11
1064.87,11
1064.87,11
1064.87,11
1064.87,11
1064.87,11
1064.87,11
1064.87,11
1064.87,11
1064.87,11
1064.87,11
1064.87,11
1064.87,11
1064.87,11
1064.87,11
1064.87,11
1064.87,11
1064.87,11
1064.87,11
1064.87,11
1064.87,11
1064.87,11
1064.87,11
1064.87,11
1064.87,11
1064.87,11
1064.87,11
1064.87,11
1064.87,11
1064.87,11
1064.87,11
1064.87,11
1064.87,11
1064.87,11
1064.87,11
1064.87,11
1064.87,11
1064.87,11
1064.87,11
1064.87,11
1064.87,11
1064.87,11
1064.87,11
1064.87,11
1064.87,11
1064.87,11
1064.87,11
1064.87,11
1064.87,11
1064.87,11
1064.87,11
1064.87,11
1064.87,11
1064.87,11
1064.87,11
1064.87,11
1064.87,11
1064.87,11
1064.87,11
1064.87,11
1064.87,11
1064.87,11
1064.87,11
1064.87,11
1064.87,11
1064.87,11
1064.87,11
1064.87,11
1064.87,11
1064.87,11
1064.87,11
1064.87,11
1064.87,11
1064.87,11
1064.87,11
1064.87,11
1064.87,11
1064.87,11
1064.87,11
1064.87,11
1064.87,11
1064.87,11
1064.87,11
1064.87,11
1064.87,11
1064.87,11
1064.87,11
1064.87,11
1064.87,11
1064.87,11
1064.87,11
1064.87,11
1064.87,11
1064.87,11
1064.87,11
1064.87,11
1064.87,11
1064.87,11
1064.87,11
1064.87,11
1064.87,11
1064.87,11
1064.87,11
1064.87,11
1064.87,11
1064.87,11
1064.87,11
1064.87,11
1064.87,11
1064.87,11
1064.87,11
1064.87,11
1064.87,11
1064.87,11
1064.87,11
1064.87,11
1064.87,11
1064.87,11
1064.87,11
1064.87,11
1064.87,11
1064.87,11
1064.87,11
1064.87,11
1064.87,11
1064.87,11
1064.87,11
1064.87,11
1064.87,11
1064.87,11
1064.87,11
1064.87,11
1064.87,11
1064.87,11
1064.87,11
1064.87,11
1064.87,11
1064.87,11
1064.87,11
1064.87,11
1064.87,11
1064.87,11
1064.87,11
1064.87,11
1064.87,11
1064.87,11
1064.87,11
1064.87,11
1064.87,11
1064.87,11
1064.87,11
1064.87,11
1060.28,11
1060.28,11
1060.28,11
1060.28,11
1060.28,11
1031.22,11
1031.22,11
1031.22,11
1031.22,11
1031.22,11
1031.22,11
1031.22,11
1031.22,11
1031.22,11
1031.22,11
1031.22,11
1031.22,11
1031.22,11
1031.22,11
1031.22,11
1031.22,11
1031.22,11
1031.22,11
1031.22,11
1031.22,11
1031.22,11
1031.22,11
1031.22,11
1031.22,11
1031.22,11
1023.7,11
985.539,11
985.539,11
985.539,11
985.539,11
985.539,11
985.539,11
985.539,11
985.539,11
985.539,11
985.539,11
985.539,11
985.539,11
985.539,11
985.539,11
985.539,11
985.539,11
985.539,11
985.539,11
985.539,11
985.539,11
985.539,11
985.539,11
985.539,11
985.539,11
985.539,11
985.539,11
985.539,11
985.539,11
985.539,11
985.539,11
985.539,11
985.539,11
985.539,11
985.539,11
985.539,11
985.539,11
985.539,11
985.539,11
985.539,11
985.539,11
985.539,11
985.539,11
985.539,11
985.539,11
985.539,11
985.539,11
985.539,11
985.539,11
985.539,11
985.539,11
985.539,11
985.539,11
985.539,11
985.539,11
985.539,11
985.539,11
985.539,11
985.539,11
985.539,11
985.539,11
985.539,11
985.539,11
985.539,11
985.539,11
985.539,11
985.539,11
985.539,11
985.539,11
985.539,11
985.539,11
985.539,11
985.539,11
985.539,11
985.539,11
985.539,11
985.539,11
985.539,11
985.539,11
985.539,11
985.539,11
985.539,11
985.539,11
985.539,11
985.539,11
985.539,11
985.539,11
985.539,11
985.539,11
985.539,11
985.539,11
985.539,11
985.539,11
985.539,11
985.539,11
985.539,11
985.539,11
985.539,11
985.539,11
985.539,11
985.539,11
985.539,11
985.539,11
985.539,11
985.539,11
985.539,11
985.539,11
985.539,11
985.539,11
985.539,11
985.539,11
985.539,11
985.539,11
985.539,11
985.539,11
985.539,11
985.539,11
985.539,11
985.539,11
985.539,11
985.539,11
985.539,11
985.539,11
985.539,11
985.539,11
985.539,11
985.539,11
985.539,11
985.539,11
985.539,11
985.539,11
985.539,11
985.539,11
985.539,11
985.539,11
985.539,11
985.539,11
985.539,11
985.539,11
985.539,11
985.539,11
985.539,11
985.539,11
985.539,11
985.539,11
985.539,11
985.539,11
985.539,11
985.539,11
985.539,11
985.539,11
985.539,11
985.539,11
985.539,11
985.539,11
985.539,11
985.539,11
985.539,11
985.539,11
985.539,11
985.539,11
985.539,11
985.539,11
985.539,11
985.539,11
985.539,11
985.539,11
985.539,11
985.539,11
985.539,11
985.539,11
985.539,11
985.539,11
985.539,11
985.539,11
985.539,11
985.539,11
985.539,11
985.539,11
985.539,11
985.539,11
985.539,11
985.539,11
985.539,11
985.539,11
985.539,11
985.539,11
985.539,11
985.539,11
985.539,11
985.539,11
985.539,11
985.539,11
985.539,11
985.539,11
985.539,11
985.539,11
985.539,11
985.539,11
985.539,11
985.539,11
985.539,11
985.539,11
985.539,11
982.818,11
978.304,11
976.943,11
976.943,11
976.943,11
976.943,11
976.943,11
976.943,11
958.46,11
958.46,11
958.46,11
958.46,11
958.46,11
958.46,11
958.46,11
958.46,11
958.46,11
958.46,11
958.46,11
958.46,11
958.46,11
958.46,11
958.46,11
958.46,11
958.46,11
958.46,11
958.46,11
958.46,11
958.46,11
958.46,11
958.46,11
958.46,11
958.46,11
958.46,11
958.46,11
958.46,11
958.46,11
958.46,11
958.46,11
958.46,11
958.46,11
958.46,11
958.46,11
958.46,11
958.46,11
958.46,11
958.46,11
958.46,11
958.46,11
958.46,11
958.46,11
958.46,11
958.46,11
958.46,11
958.46,11
958.46,11
958.46,11
958.46,11
958.46,11
958.46,11
958.46,11
958.46,11
958.46,11
958.46,11
958.46,11
958.46,11
958.46,11
958.46,11
958.46,11
958.46,11
958.46,11
958.46,11
958.46,11
958.46,11
958.46,11
958.46,11
958.46,11
958.46,11
958.46,11
958.46,11
958.46,11
958.46,11
958.46,11
958.46,11
958.46,11
958.46,11
958.46,11
958.46,11
924.208,10
924.208,10
924.208,10
924.208,10
924.208,10
924.208,10
924.208,10
924.208,10
924.208,10
924.208,10
924.208,10
924.208,10
924.208,10
924.208,10
924.208,10
924.208,10
